%chk=carbazole_compound.chk
%Mem=8000MB
%NProcShared=4
#p B3LYP/6-31G Opt

Geometry Optimization

0 1
C  
N     1    1.441132950
C     2    1.384877340   1    107.6858251
C     3    1.348480768   2    124.7549202   1    165.3932276
C     4    1.350713435   3    121.4577281   2    -179.4915530
H     5    1.103585395   4    121.1116637   3    -0.100068035
C     5    1.344317556   4    122.0735268   3    179.8434260
C     7    1.338039636   5    118.7409701   4    -0.371238743
N     8    1.374966332   7    128.1319791   5    -179.5729835
C     9    1.374847415   8    101.7246512   7    -176.9081485
C    10    1.342713101   9    112.0134137   8    -2.464136728
C    11    1.343836080  10    107.0913985   9    1.642256098
C    12    1.339247196  11    131.5229649  10   178.6289382
H    13    1.101739117  12    118.3508158  11    1.030926817
C    11    1.339213126  10    121.4009135   9   -179.4102321
C    15    1.349297731  11    119.5623090  10   -0.200255399
C    16    1.348435512  15    120.3004825  11   179.4406677
N    17    1.384547356  16    124.8254551  15    0.378662872
C    18    1.441027782  17    107.5300925  16    166.0277738
C    19    1.531044612  18    104.0603757  17    21.37190342
N    20    1.477610252  19    99.46216456  18   -20.22126724
H    20    1.115393058  21    110.1086831  17   133.4429548
H    20    1.115626607  21    108.1872573  17   -104.5644856
H    19    1.115883384  20    110.7489795  21    96.47193110
H    19    1.115347720  20    113.2540836  21   -140.5316800
H    18    1.019110757  19    116.1423601  20   151.0205022
C    16    1.350572992  15    118.3429181  11   -0.526061382
C    27    1.343986794  16    122.1532047  15    0.441783292
H    28    1.103427170  27    121.0442217  16   179.7271610
H    27    1.103282865  28    116.7165828  29   -0.020168082
H    15    1.101589925  16    122.0434456  17   -0.558870240
H     9    1.018489705   8    123.4247419   7   -32.75056694
H     7    1.103349198   8    120.1359320   9   -0.085421619
N     3    1.266690784   4    124.4171310   5   -0.491272888
C     1    1.531285273   2    104.2878838   3    19.82952227
H    35    1.115310399   1    113.7292150   2   -134.8635073
H    35    1.115389160   1    113.0297841   2    96.74783700
H     2    1.019246219   1    115.9702996   35   149.2798642
H     1    1.115827921   2    110.6639580   3   141.7407009
H     1    1.115995087   2    108.6679001   3   -98.41103313

